&control
        tprnfor = .true.
        tstress = .true.
        disk_io = "none"
        pseudo_dir = "/work/e89/e89/kw2318/dojo"
        prefix = "ESP_1"
/
&system
        degauss = 0.004
        smearing = "gauss"
        ecutwfc = 104
        occupations = "smearing"
        nat = 32
        ntyp = 1
        ibrav = 0
/
&electrons
        conv_thr = 1e-10
/

ATOMIC_SPECIES
O  1.0   O.upf

K_POINTS automatic
6 6 6 1 1 1
CELL_PARAMETERS angstrom
6.1447062793686866  2.1001568942367381  0.0067362072403148
-6.1447062793686866  2.1001568942367403  -0.0067362072403149
-1.4863077239562132  0.0000000000000005  7.1589966182895566

ATOMIC_POSITIONS angstrom
O    -0.8243425971067885  0.6069766039060895  0.7648682427282422
O    0.0844471804626713  1.6290565686186922  2.8479329804330997
O    0.3681014344366019  0.5716929309069690  1.0838224688354154
O    -1.0998621907405093  1.6196621553311006  2.6043708886118648
O    -1.5040546116313434  0.5626082356740019  4.3855579765915298
O    -0.7036983216509963  1.5872549702121881  6.3324142079782835
O    -0.3907195415433128  0.5891115570650233  4.6030906828517821
O    -1.8683868265790806  1.5909627453008226  6.0814684532458250
O    -3.9828008571639710  1.4549766791759990  0.9316639414528887
O    -2.9834066579776803  2.7781297843943000  2.7487987176762618
O    -2.7195766181433760  1.5837539812006778  1.0598388986315941
O    -4.2066286236493422  2.6394240464657805  2.5532242636540490
O    -4.5843502001491796  1.5681708823083933  4.3306911622904973
O    -3.7951140145478659  2.5509815699561482  6.3571429233497430
O    -3.4098779289042449  1.5385295662300802  4.5442262914597986
O    -4.9269771425546214  2.4965998698427105  6.0809473997183687
O    2.3342378177282899  1.5154190410140949  0.7987942265468616
O    3.1382246323581713  2.5993179998493252  2.7647145957225940
O    3.4864171449136165  1.6073527095928939  1.0519056486009446
O    2.0128483337750946  2.6005336169797237  2.4592532676897347
O    1.5893518314342523  1.5047188191860095  4.3733262621525339
O    2.3216875786177114  2.5624345792520851  6.3924720627119260
O    2.7787480716641961  1.5905680946387997  4.5717834156826207
O    1.2120356854974681  2.5451226263735420  6.1575170904858503
O    -0.8033445587544520  2.4662100152679991  0.6796980940781518
O    -0.0105215763770371  3.7483481308328495  2.8098641574799790
O    0.3445343655484033  2.5435512942004990  0.9132285034373515
O    -1.1160098470269613  3.7347024516579364  2.5069358135490893
O    -1.5930319050538357  2.7373426107686138  4.3659944273722040
O    -0.6930251407988913  3.7213770945076625  6.4310382595858631
O    -0.3840151832657966  2.6800992040368716  4.6216536904784213
O    -1.8518193421298206  3.6800003919438726  6.3356925412295562
