&CONTROL
/
&SYSTEM
   ntyp             = 2
   nat              = 128
   ibrav            = 0
/
&ELECTRONS
/
&IONS
/
&CELL
/

ATOMIC_SPECIES
Sn 118.71 None
Te 127.6 None

K_POINTS gamma

CELL_PARAMETERS angstrom
-0.00000000000000 12.78064545892732 12.78064545892732
12.78064545892732 -0.00000000000000 12.78064545892732
12.78064545892732 12.78064545892732 -0.00000000000000

ATOMIC_POSITIONS angstrom
Sn 0.0636103082 0.0048287213 0.1025184328 
Sn 3.1498424536 3.2862532455 -0.1222065912 
Sn 6.3590567548 6.3344407105 0.1650329948 
Sn 9.5698088460 9.6246455799 0.1219280735 
Sn 3.2803962192 0.1322236024 3.1065562661 
Sn 6.5798922102 3.1000875953 3.0013748340 
Sn 9.6597372232 6.3501284773 3.1062492330 
Sn 12.7435086017 9.4955510987 3.1986906692 
Sn 6.2655184650 0.1655840015 6.4079495953 
Sn 9.4574608277 3.0281340238 6.3507270828 
Sn 12.7652975258 6.3707162768 6.7458541019 
Sn 15.9890316019 9.4264623035 6.1776648348 
Sn 9.6201531519 0.0205225262 9.6062880984 
Sn 12.8372368889 3.1711903121 9.5535864682 
Sn 15.9831967614 6.4168770895 9.5733496262 
Sn 19.2740441269 9.4799173352 9.7400731558 
Sn 0.0491080875 3.2296563093 3.2349656551 
Sn 3.1032199708 6.5232084674 3.1085824293 
Sn 6.2946119985 9.3710342949 3.1550875426 
Sn 9.6105689606 12.7333910694 3.2740638135 
Sn 3.1034920833 3.1488034366 6.2377266760 
Sn 6.2716687523 6.4619943904 6.5348714444 
Sn 9.5558312454 9.5466545773 6.4501402895 
Sn 12.6343236417 12.8676444310 6.5887871606 
Sn 6.4045032744 3.1336281832 9.4678092400 
Sn 9.5709904756 6.4985206569 9.5379487226 
Sn 12.9457399683 9.6136215401 9.6395289569 
Sn 16.0356695645 12.8417281635 9.5265618826 
Sn 9.5080818315 3.1559165643 12.6790344116 
Sn 12.7755614837 6.4918138119 12.8276413990 
Sn 15.9317130372 9.6873472256 12.7415258328 
Sn 19.2254937119 12.9511297564 12.7725831106 
Sn 0.0221283702 6.4223185975 6.3915038622 
Sn 3.1665706292 9.4641432690 6.3556014197 
Sn 6.3575967709 12.7676236016 6.4402292821 
Sn 9.5306193890 15.9771819008 6.3970111576 
Sn 3.1202004785 6.4779296280 9.5073936810 
Sn 6.3960053087 9.5813027906 9.6728197310 
Sn 9.7877492136 12.8110733199 9.5082282849 
Sn 12.8069006445 15.9676887377 9.5855945864 
Sn 6.4702470563 6.3116291159 12.7904271545 
Sn 9.5657218742 9.5834318844 12.8579598852 
Sn 12.7630172563 12.7666563078 12.9044754556 
Sn 15.9693353715 15.9719149203 12.6324445886 
Sn 9.6270119682 6.4741566024 15.9613012453 
Sn 12.7497855321 9.5634983575 15.9914936338 
Sn 16.0570422964 12.9195290072 15.8782050228 
Sn 19.2732779546 15.9141269321 15.8474358274 
Sn -0.0662972314 9.6422538371 9.5085111005 
Sn 3.2391173159 12.7831485410 9.5334946892 
Sn 6.4619273753 15.9736525281 9.5715266920 
Sn 9.6845999779 19.2393670910 9.6379856092 
Sn 3.0733546078 9.5294739505 12.7258746299 
Sn 6.3426046467 12.7627781626 12.7802409956 
Sn 9.6418980538 15.9529942041 12.7803005857 
Sn 12.8910372546 19.1271190627 12.8159749305 
Sn 6.4723720443 9.4365652192 16.0969300571 
Sn 9.6676883504 12.7492746266 15.8641380758 
Sn 12.9520869725 15.9143534569 15.9878332228 
Sn 16.0392784032 19.3033079015 15.9758222000 
Sn 9.5705716796 9.5655014203 19.2401241545 
Sn 12.7137080484 12.7097358932 19.2703204736 
Sn 15.8732713999 15.9349184920 19.1087529121 
Sn 19.1527524185 19.1400371093 19.3263029616 
Te 3.2669677714 3.2362025299 3.2598398258 
Te 6.4238743316 6.2730514799 3.2496186502 
Te 9.5843871806 9.5390075099 3.1974738434 
Te 12.7554217982 12.7509747028 3.3091106329 
Te 6.2889308237 3.2914253929 6.3824704933 
Te 9.6008167593 6.3534783840 6.4143416104 
Te 12.8384960393 9.6029096706 6.3358676099 
Te 15.9155006738 12.7198025672 6.3438907213 
Te 9.5795830074 3.1232337370 9.5140481025 
Te 12.8146466375 6.3151069725 9.6417004330 
Te 16.0766798533 9.6179105541 9.5082126644 
Te 19.1650656361 12.7437309179 9.7198185343 
Te 12.7895477015 3.2039202897 12.9101596423 
Te 15.9205689677 6.4415415553 12.8566266144 
Te 19.0815200699 9.6253680997 12.8922907843 
Te 22.3253715594 12.6763059345 12.8696488777 
Te 3.2002823505 6.2454750447 6.4477664326 
Te 6.2466973130 9.6569221636 6.5006164526 
Te 9.4819688409 12.7761552693 6.4152282830 
Te 12.7210873595 15.9446177642 6.3789231508 
Te 6.3327095605 6.4038330316 9.5788503703 
Te 9.5881695969 9.6580985268 9.5173097863 
Te 12.8038662759 12.7552962562 9.7865438934 
Te 15.9067976852 16.0453916818 9.5467605150 
Te 9.5119521334 6.3779042720 12.7710599190 
Te 12.7608758195 9.6590253321 12.6864332716 
Te 15.9772482792 12.8156396266 12.7229256149 
Te 19.0428056134 16.0151115436 12.7437819581 
Te 12.7866702405 6.4305610642 15.9577859287 
Te 15.9792240036 9.6006832855 15.9071852413 
Te 19.1825967356 12.7540082211 15.9519661206 
Te 22.3891634205 16.0296008838 15.9861665742 
Te 3.1677951512 9.6952515968 9.4453665461 
Te 6.3171013523 12.7848596412 9.6653935840 
Te 9.6524266341 16.1022187150 9.6204485256 
Te 12.7770018002 19.2018872264 9.4520811741 
Te 6.4454547488 9.5435570904 12.7271943130 
Te 9.6610995067 12.7505073319 12.7373414882 
Te 12.8361976835 15.9750010478 12.7504717690 
Te 15.9718109102 19.0216980346 12.7327617386 
Te 9.6692380372 9.6806747230 15.9233373106 
Te 12.8388014807 12.7543644001 15.9670988771 
Te 16.0787732476 16.1329979649 15.9392796276 
Te 19.2021354715 19.1085287882 15.9383385654 
Te 12.7474007832 9.6183210097 19.0884254033 
Te 15.9447943244 12.7184852651 19.1319737986 
Te 19.1288282483 15.9450714202 19.0977762192 
Te 22.3782973224 19.2120174359 19.1735850390 
Te 3.2448357590 12.6841274420 12.8423440793 
Te 6.3839652068 15.9945130369 12.6670767617 
Te 9.5402529256 19.2383592193 12.8037891519 
Te 12.7293149880 22.3973474491 12.6662890576 
Te 6.4593423209 12.7785255625 16.0540571321 
Te 9.6208634614 15.9190459353 15.9955507759 
Te 12.8232727841 19.1561786022 15.9717267896 
Te 15.9330514865 22.4464057056 15.8518749608 
Te 9.4150336993 12.6639891314 19.1348477632 
Te 12.7331522490 15.9059504120 19.2016475146 
Te 15.8580774790 19.0752184061 19.1382478087 
Te 19.2251613047 22.5112744222 19.2290734802 
Te 12.7559398901 12.8191794173 22.4005765593 
Te 16.0230353299 16.0238463821 22.3037657660 
Te 19.1493280367 19.1810183719 22.4845203052 
Te 22.4257307074 22.3024514497 22.4389684693 

