Sn Te 
 1.0000000000000000
    -0.0000000000000000   12.7806454589273208   12.7806454589273208
    12.7806454589273208   -0.0000000000000000   12.7806454589273208
    12.7806454589273208   12.7806454589273208   -0.0000000000000000
 Sn  Te 
  64  64
Cartesian
  0.0636103082000000  0.0048287213000000  0.1025184328000000
  3.1498424535999998  3.2862532455000002 -0.1222065912000000
  6.3590567548000001  6.3344407105000000  0.1650329948000000
  9.5698088460000008  9.6246455798999992  0.1219280735000000
  3.2803962192000000  0.1322236024000000  3.1065562661000001
  6.5798922101999997  3.1000875953000002  3.0013748339999999
  9.6597372232000005  6.3501284773000002  3.1062492330000002
 12.7435086017000003  9.4955510987000000  3.1986906691999999
  6.2655184650000004  0.1655840015000000  6.4079495952999999
  9.4574608277000003  3.0281340237999999  6.3507270827999998
 12.7652975257999994  6.3707162767999996  6.7458541019000000
 15.9890316019000007  9.4264623034999993  6.1776648347999998
  9.6201531519000003  0.0205225262000000  9.6062880984000003
 12.8372368888999997  3.1711903120999998  9.5535864682000007
 15.9831967614000003  6.4168770894999998  9.5733496262000006
 19.2740441269000016  9.4799173351999997  9.7400731557999993
  0.0491080875000000  3.2296563093000001  3.2349656550999999
  3.1032199708000001  6.5232084673999999  3.1085824293000002
  6.2946119984999997  9.3710342948999994  3.1550875426000000
  9.6105689606000002 12.7333910693999997  3.2740638135000002
  3.1034920832999999  3.1488034366000002  6.2377266760000003
  6.2716687523000001  6.4619943904000001  6.5348714444000002
  9.5558312454000003  9.5466545773000000  6.4501402895000002
 12.6343236417000000 12.8676444310000004  6.5887871605999999
  6.4045032743999997  3.1336281831999999  9.4678092399999993
  9.5709904756000004  6.4985206569000002  9.5379487225999995
 12.9457399682999998  9.6136215401000005  9.6395289568999996
 16.0356695645000009 12.8417281634999991  9.5265618825999994
  9.5080818315000002  3.1559165643000000 12.6790344116000000
 12.7755614837000007  6.4918138119000002 12.8276413990000009
 15.9317130371999998  9.6873472255999999 12.7415258328000007
 19.2254937119000004 12.9511297564000003 12.7725831105999994
  0.0221283702000000  6.4223185975000003  6.3915038622000004
  3.1665706292000002  9.4641432689999991  6.3556014197000001
  6.3575967708999999 12.7676236016000004  6.4402292820999998
  9.5306193889999999 15.9771819007999998  6.3970111575999997
  3.1202004785000002  6.4779296280000001  9.5073936809999999
  6.3960053087000004  9.5813027906000006  9.6728197310000006
  9.7877492135999997 12.8110733199000002  9.5082282848999995
 12.8069006445000007 15.9676887376999996  9.5855945863999992
  6.4702470562999999  6.3116291158999998 12.7904271544999997
  9.5657218741999994  9.5834318843999995 12.8579598851999997
 12.7630172562999995 12.7666563077999999 12.9044754556000001
 15.9693353714999997 15.9719149202999997 12.6324445886000003
  9.6270119681999997  6.4741566023999999 15.9613012452999996
 12.7497855321000007  9.5634983575000003 15.9914936337999993
 16.0570422963999988 12.9195290071999995 15.8782050227999996
 19.2732779546000010 15.9141269321000003 15.8474358274000000
 -0.0662972314000000  9.6422538371000002  9.5085111004999998
  3.2391173159000002 12.7831485409999992  9.5334946891999994
  6.4619273753000002 15.9736525281000006  9.5715266920000008
  9.6845999778999996 19.2393670909999983  9.6379856091999994
  3.0733546077999998  9.5294739504999999 12.7258746298999998
  6.3426046466999999 12.7627781626000001 12.7802409955999998
  9.6418980538000003 15.9529942040999995 12.7803005856999992
 12.8910372546000005 19.1271190627000003 12.8159749304999995
  6.4723720443000001  9.4365652192000002 16.0969300570999998
  9.6676883504000006 12.7492746266000001 15.8641380757999997
 12.9520869725000001 15.9143534569000007 15.9878332228000009
 16.0392784032000009 19.3033079014999984 15.9758221999999996
  9.5705716796000004  9.5655014203000004 19.2401241544999984
 12.7137080483999991 12.7097358931999995 19.2703204736000018
 15.8732713999000001 15.9349184919999995 19.1087529121000017
 19.1527524185000004 19.1400371092999997 19.3263029615999997
  3.2669677714000001  3.2362025298999999  3.2598398257999999
  6.4238743316000004  6.2730514799000003  3.2496186502000000
  9.5843871806000003  9.5390075098999993  3.1974738434000001
 12.7554217982000004 12.7509747028000007  3.3091106329000000
  6.2889308237000003  3.2914253928999999  6.3824704932999996
  9.6008167593000007  6.3534783839999998  6.4143416104000002
 12.8384960393000007  9.6029096706000008  6.3358676099000002
 15.9155006738000004 12.7198025672000004  6.3438907213000002
  9.5795830074000001  3.1232337370000001  9.5140481025000003
 12.8146466374999992  6.3151069724999997  9.6417004330000005
 16.0766798532999999  9.6179105540999998  9.5082126644000002
 19.1650656360999996 12.7437309179000007  9.7198185342999999
 12.7895477015000001  3.2039202897000001 12.9101596423000000
 15.9205689676999995  6.4415415552999997 12.8566266143999997
 19.0815200699000016  9.6253680996999993 12.8922907843000001
 22.3253715594000006 12.6763059345000002 12.8696488776999995
  3.2002823505000002  6.2454750447000000  6.4477664325999999
  6.2466973130000003  9.6569221636000009  6.5006164526000001
  9.4819688409000005 12.7761552693000002  6.4152282830000003
 12.7210873595000002 15.9446177642000002  6.3789231508000004
  6.3327095604999997  6.4038330315999996  9.5788503702999996
  9.5881695969000003  9.6580985267999999  9.5173097863000002
 12.8038662759000008 12.7552962561999994  9.7865438933999993
 15.9067976852000008 16.0453916818000017  9.5467605150000008
  9.5119521333999995  6.3779042720000003 12.7710599190000007
 12.7608758195000007  9.6590253321000006 12.6864332716000003
 15.9772482791999995 12.8156396265999994 12.7229256148999994
 19.0428056133999988 16.0151115435999998 12.7437819580999996
 12.7866702404999995  6.4305610642000000 15.9577859286999999
 15.9792240036000006  9.6006832855000006 15.9071852413000006
 19.1825967356000007 12.7540082210999994 15.9519661205999999
 22.3891634205000010 16.0296008838000006 15.9861665742000003
  3.1677951512000000  9.6952515968000004  9.4453665461000007
  6.3171013522999999 12.7848596412000006  9.6653935840000003
  9.6524266340999993 16.1022187149999993  9.6204485256000005
 12.7770018002000008 19.2018872264000002  9.4520811740999999
  6.4454547487999996  9.5435570904000002 12.7271943130000000
  9.6610995066999994 12.7505073318999997 12.7373414882000002
 12.8361976835000000 15.9750010477999993 12.7504717690000007
 15.9718109102000003 19.0216980346000000 12.7327617386000007
  9.6692380371999995  9.6806747229999992 15.9233373105999991
 12.8388014807000008 12.7543644001000001 15.9670988770999998
 16.0787732476000009 16.1329979648999995 15.9392796275999995
 19.2021354715000001 19.1085287882000010 15.9383385654000005
 12.7474007831999998  9.6183210097000007 19.0884254033000005
 15.9447943244000001 12.7184852651000000 19.1319737986000007
 19.1288282482999996 15.9450714201999997 19.0977762192000000
 22.3782973224000017 19.2120174359000018 19.1735850389999989
  3.2448357589999999 12.6841274419999994 12.8423440793000001
  6.3839652068000001 15.9945130369000008 12.6670767617000006
  9.5402529256000008 19.2383592193000013 12.8037891519000002
 12.7293149880000005 22.3973474490999997 12.6662890576000002
  6.4593423209000003 12.7785255625000005 16.0540571320999987
  9.6208634614000008 15.9190459352999998 15.9955507759000000
 12.8232727841000003 19.1561786022000007 15.9717267895999999
 15.9330514865000001 22.4464057056000001 15.8518749608000000
  9.4150336993000003 12.6639891313999993 19.1348477631999998
 12.7331522489999998 15.9059504119999993 19.2016475146000012
 15.8580774790000003 19.0752184060999994 19.1382478087000010
 19.2251613046999985 22.5112744221999996 19.2290734802000003
 12.7559398901000005 12.8191794173000009 22.4005765592999992
 16.0230353299000008 16.0238463821000003 22.3037657660000015
 19.1493280366999983 19.1810183718999987 22.4845203052000002
 22.4257307073999996 22.3024514497000013 22.4389684693000007
